\ Model gr4x6_variant4
\ LP format - for model browsing. Use MPS format to capture full model detail.
Minimize
  16.04 X[0] + 5.91 X[1] + 9.7 X[2] + 5.75 X[3] + 12.15 X[4] + 18.79 X[5]
   + 12.97 X[6] + 5.85 X[7] + 12.62 X[8] + 17.77 X[9] + 6.03 X[10]
   + 6.02 X[11] + 17.93 X[12] + 11.06 X[13] + 19.12 X[14] + 13.55 X[15]
   + 13.68 X[16] + 5.6 X[17] + 6.23 X[18] + 14.86 X[19] + 13.48 X[20]
   + 9.75 X[21] + 8.91 X[22] + 15.05 X[23] + 9.71 X[24] + 8.98 X[25]
   + 6.96 X[26] + 14.68 X[27] + 11.86 X[28] + 18.94 X[29] + 19.04 X[30]
   + 5.14 X[31] + 14.32 X[32] + 13.44 X[33] + 6.5 X[34] + 13.06 X[35]
   + 12.59 X[36] + 6.99 X[37] + 10.24 X[38] + 6.03 X[39] + 8.66 X[40]
   + 9.27 X[41] + 11.57 X[42] + 13.15 X[43] + 9.54 X[44] + 19.76 X[45]
   + 17.11 X[46] + 12.93 X[47] + 15.02 X[48] + 13.32 X[49] + 18.98 X[50]
   + 6.55 X[51] + 18.17 X[52] + 8.97 X[53] + 18.35 X[54] + 16.14 X[55]
   + 7.33 X[56] + 9.23 X[57] + 8.16 X[58] + 10.14 X[59] + 15.31 X[60]
   + 17.79 X[61] + 12.58 X[62] + 8.77 X[63] + 18.62 X[64] + 5.76 X[65]
   + 14.51 X[66] + 17.44 X[67] + 5.66 X[68] + 10 X[69] + 6.96 X[70]
   + 19.7 X[71] + 7.42 X[72] + 11.63 X[73] + 15.59 X[74] + 13.41 X[75]
   + 6.68 X[76] + 19.18 X[77] + 15.37 X[78] + 7.24 X[79] + 114.41 Y[0]
   + 247.69 Y[1] + 321.01 Y[2] + 271.91 Y[3] + 116.73 Y[4] + 245.86 Y[5]
   + 473.24 Y[6] + 488.88 Y[7] + 115.96 Y[8] + 243.12 Y[9] + 372.83 Y[10]
   + 366.77 Y[11] + 241.47 Y[12] + 323.95 Y[13] + 449.89 Y[14]
   + 489.53 Y[15] + 399.79 Y[16] + 470.31 Y[17] + 194.69 Y[18] + 165 Y[19]
   + 419.95 Y[20] + 170.82 Y[21] + 264.92 Y[22] + 171.74 Y[23]
   + 469.79 Y[24] + 412.95 Y[25] + 264.69 Y[26] + 367.96 Y[27]
   + 394.02 Y[28] + 199.27 Y[29] + 163.68 Y[30] + 380.51 Y[31]
   + 253.02 Y[32] + 115.49 Y[33] + 288.28 Y[34] + 179.83 Y[35]
   + 467.38 Y[36] + 239.86 Y[37] + 428.21 Y[38] + 448.53 Y[39]
   + 189.17 Y[40] + 364.01 Y[41] + 259.39 Y[42] + 211.44 Y[43]
   + 127.77 Y[44] + 409.33 Y[45] + 240.46 Y[46] + 303.76 Y[47]
   + 371.81 Y[48] + 437.46 Y[49] + 232.46 Y[50] + 111.04 Y[51]
   + 450.82 Y[52] + 204.49 Y[53] + 332.24 Y[54] + 493.42 Y[55]
   + 115.3 Y[56] + 338.63 Y[57] + 238.27 Y[58] + 414.57 Y[59]
   + 274.56 Y[60] + 493.69 Y[61] + 146.26 Y[62] + 459.8 Y[63]
   + 176.03 Y[64] + 117.75 Y[65] + 274.42 Y[66] + 307.97 Y[67]
   + 422.6 Y[68] + 374.74 Y[69] + 476.11 Y[70] + 394.82 Y[71]
   + 178.81 Y[72] + 272.52 Y[73] + 479.55 Y[74] + 468.31 Y[75]
   + 349.26 Y[76] + 365.35 Y[77] + 149.85 Y[78] + 460.02 Y[79]
Subject To
 A0: X[0] + X[1] + X[2] + X[3] + X[4] + X[5] + X[6] + X[7] = 110.96
 A1: X[8] + X[9] + X[10] + X[11] + X[12] + X[13] + X[14] + X[15] = 122.2
 A2: X[16] + X[17] + X[18] + X[19] + X[20] + X[21] + X[22] + X[23] = 179.7
 A3: X[24] + X[25] + X[26] + X[27] + X[28] + X[29] + X[30] + X[31]
   = 185.37
 A4: X[32] + X[33] + X[34] + X[35] + X[36] + X[37] + X[38] + X[39] = 74.7
 A5: X[40] + X[41] + X[42] + X[43] + X[44] + X[45] + X[46] + X[47] = 50.32
 A6: X[48] + X[49] + X[50] + X[51] + X[52] + X[53] + X[54] + X[55]
   = 108.56
 A7: X[56] + X[57] + X[58] + X[59] + X[60] + X[61] + X[62] + X[63]
   = 188.98
 A8: X[64] + X[65] + X[66] + X[67] + X[68] + X[69] + X[70] + X[71]
   = 167.77
 A9: X[72] + X[73] + X[74] + X[75] + X[76] + X[77] + X[78] + X[79] = 92.79
 B0: X[0] + X[8] + X[16] + X[24] + X[32] + X[40] + X[48] + X[56] + X[64]
   + X[72] = 648.3
 B1: X[1] + X[9] + X[17] + X[25] + X[33] + X[41] + X[49] + X[57] + X[65]
   + X[73] = 665.25
 B2: X[2] + X[10] + X[18] + X[26] + X[34] + X[42] + X[50] + X[58] + X[66]
   + X[74] = 691.68
 B3: X[3] + X[11] + X[19] + X[27] + X[35] + X[43] + X[51] + X[59] + X[67]
   + X[75] = 630.94
 B4: X[4] + X[12] + X[20] + X[28] + X[36] + X[44] + X[52] + X[60] + X[68]
   + X[76] = 543.34
 B5: X[5] + X[13] + X[21] + X[29] + X[37] + X[45] + X[53] + X[61] + X[69]
   + X[77] = 394.95
 B6: X[6] + X[14] + X[22] + X[30] + X[38] + X[46] + X[54] + X[62] + X[70]
   + X[78] = 408.85
 B7: X[7] + X[15] + X[23] + X[31] + X[39] + X[47] + X[55] + X[63] + X[71]
   + X[79] = 329.24
 G0: X[0] - 100.71 Y[0] <= 0
 G1: X[1] - 116.69 Y[1] <= 0
 G2: X[2] - 82.62 Y[2] <= 0
 G3: X[3] - 119.72 Y[3] <= 0
 G4: X[4] - 105.44 Y[4] <= 0
 G5: X[5] - 69.18 Y[5] <= 0
 G6: X[6] - 116.49 Y[6] <= 0
 G7: X[7] - 87.91 Y[7] <= 0
 G8: X[8] - 124.81 Y[8] <= 0
 G9: X[9] - 67.4 Y[9] <= 0
 G10: X[10] - 106.91 Y[10] <= 0
 G11: X[11] - 90.61 Y[11] <= 0
 G12: X[12] - 133.37 Y[12] <= 0
 G13: X[13] - 80.39 Y[13] <= 0
 G14: X[14] - 71.02 Y[14] <= 0
 G15: X[15] - 128.58 Y[15] <= 0
 G16: X[16] - 110.67 Y[16] <= 0
 G17: X[17] - 82.22 Y[17] <= 0
 G18: X[18] - 94.18 Y[18] <= 0
 G19: X[19] - 117.56 Y[19] <= 0
 G20: X[20] - 101.12 Y[20] <= 0
 G21: X[21] - 129.37 Y[21] <= 0
 G22: X[22] - 145.98 Y[22] <= 0
 G23: X[23] - 123.6 Y[23] <= 0
 G24: X[24] - 115.89 Y[24] <= 0
 G25: X[25] - 78.38 Y[25] <= 0
 G26: X[26] - 116.39 Y[26] <= 0
 G27: X[27] - 111.93 Y[27] <= 0
 G28: X[28] - 59.34 Y[28] <= 0
 G29: X[29] - 145.2 Y[29] <= 0
 G30: X[30] - 73.49 Y[30] <= 0
 G31: X[31] - 81.04 Y[31] <= 0
 G32: X[32] - 130.66 Y[32] <= 0
 G33: X[33] - 64.74 Y[33] <= 0
 G34: X[34] - 54.62 Y[34] <= 0
 G35: X[35] - 148.39 Y[35] <= 0
 G36: X[36] - 111.13 Y[36] <= 0
 G37: X[37] - 126.85 Y[37] <= 0
 G38: X[38] - 95.54 Y[38] <= 0
 G39: X[39] - 138.61 Y[39] <= 0
 G40: X[40] - 107.57 Y[40] <= 0
 G41: X[41] - 121.83 Y[41] <= 0
 G42: X[42] - 88.4 Y[42] <= 0
 G43: X[43] - 89.97 Y[43] <= 0
 G44: X[44] - 64.76 Y[44] <= 0
 G45: X[45] - 118.76 Y[45] <= 0
 G46: X[46] - 139.27 Y[46] <= 0
 G47: X[47] - 136.04 Y[47] <= 0
 G48: X[48] - 138.55 Y[48] <= 0
 G49: X[49] - 127.84 Y[49] <= 0
 G50: X[50] - 71.88 Y[50] <= 0
 G51: X[51] - 130.41 Y[51] <= 0
 G52: X[52] - 119.59 Y[52] <= 0
 G53: X[53] - 96.45 Y[53] <= 0
 G54: X[54] - 105.74 Y[54] <= 0
 G55: X[55] - 141.75 Y[55] <= 0
 G56: X[56] - 62.14 Y[56] <= 0
 G57: X[57] - 63.33 Y[57] <= 0
 G58: X[58] - 96.46 Y[58] <= 0
 G59: X[59] - 103.11 Y[59] <= 0
 G60: X[60] - 105.89 Y[60] <= 0
 G61: X[61] - 81.73 Y[61] <= 0
 G62: X[62] - 125.53 Y[62] <= 0
 G63: X[63] - 94.26 Y[63] <= 0
 G64: X[64] - 131.5 Y[64] <= 0
 G65: X[65] - 139.2 Y[65] <= 0
 G66: X[66] - 92.67 Y[66] <= 0
 G67: X[67] - 140.69 Y[67] <= 0
 G68: X[68] - 94.59 Y[68] <= 0
 G69: X[69] - 65.92 Y[69] <= 0
 G70: X[70] - 136.15 Y[70] <= 0
 G71: X[71] - 95.01 Y[71] <= 0
 G72: X[72] - 125.18 Y[72] <= 0
 G73: X[73] - 133.99 Y[73] <= 0
 G74: X[74] - 77.73 Y[74] <= 0
 G75: X[75] - 127.77 Y[75] <= 0
 G76: X[76] - 98.46 Y[76] <= 0
 G77: X[77] - 73.92 Y[77] <= 0
 G78: X[78] - 93.99 Y[78] <= 0
 G79: X[79] - 121.35 Y[79] <= 0
 H0: Y[0] + Y[1] + Y[2] + Y[3] + Y[4] + Y[5] + Y[6] + Y[7] >= 2
 H1: Y[8] + Y[9] + Y[10] + Y[11] + Y[12] + Y[13] + Y[14] + Y[15] >= 2
 H2: Y[16] + Y[17] + Y[18] + Y[19] + Y[20] + Y[21] + Y[22] + Y[23] >= 2
 H3: Y[24] + Y[25] + Y[26] + Y[27] + Y[28] + Y[29] + Y[30] + Y[31] >= 2
 H4: Y[32] + Y[33] + Y[34] + Y[35] + Y[36] + Y[37] + Y[38] + Y[39] >= 2
 H5: Y[40] + Y[41] + Y[42] + Y[43] + Y[44] + Y[45] + Y[46] + Y[47] >= 2
 H6: Y[48] + Y[49] + Y[50] + Y[51] + Y[52] + Y[53] + Y[54] + Y[55] >= 2
 H7: Y[56] + Y[57] + Y[58] + Y[59] + Y[60] + Y[61] + Y[62] + Y[63] >= 2
 H8: Y[64] + Y[65] + Y[66] + Y[67] + Y[68] + Y[69] + Y[70] + Y[71] >= 2
 H9: Y[72] + Y[73] + Y[74] + Y[75] + Y[76] + Y[77] + Y[78] + Y[79] >= 2
Bounds
 X[0] <= 148.39
 X[1] <= 148.39
 X[2] <= 148.39
 X[3] <= 148.39
 X[4] <= 148.39
 X[5] <= 148.39
 X[6] <= 148.39
 X[7] <= 148.39
 X[8] <= 148.39
 X[9] <= 148.39
 X[10] <= 148.39
 X[11] <= 148.39
 X[12] <= 148.39
 X[13] <= 148.39
 X[14] <= 148.39
 X[15] <= 148.39
 X[16] <= 148.39
 X[17] <= 148.39
 X[18] <= 148.39
 X[19] <= 148.39
 X[20] <= 148.39
 X[21] <= 148.39
 X[22] <= 148.39
 X[23] <= 148.39
 X[24] <= 148.39
 X[25] <= 148.39
 X[26] <= 148.39
 X[27] <= 148.39
 X[28] <= 148.39
 X[29] <= 148.39
 X[30] <= 148.39
 X[31] <= 148.39
 X[32] <= 148.39
 X[33] <= 148.39
 X[34] <= 148.39
 X[35] <= 148.39
 X[36] <= 148.39
 X[37] <= 148.39
 X[38] <= 148.39
 X[39] <= 148.39
 X[40] <= 148.39
 X[41] <= 148.39
 X[42] <= 148.39
 X[43] <= 148.39
 X[44] <= 148.39
 X[45] <= 148.39
 X[46] <= 148.39
 X[47] <= 148.39
 X[48] <= 148.39
 X[49] <= 148.39
 X[50] <= 148.39
 X[51] <= 148.39
 X[52] <= 148.39
 X[53] <= 148.39
 X[54] <= 148.39
 X[55] <= 148.39
 X[56] <= 148.39
 X[57] <= 148.39
 X[58] <= 148.39
 X[59] <= 148.39
 X[60] <= 148.39
 X[61] <= 148.39
 X[62] <= 148.39
 X[63] <= 148.39
 X[64] <= 148.39
 X[65] <= 148.39
 X[66] <= 148.39
 X[67] <= 148.39
 X[68] <= 148.39
 X[69] <= 148.39
 X[70] <= 148.39
 X[71] <= 148.39
 X[72] <= 148.39
 X[73] <= 148.39
 X[74] <= 148.39
 X[75] <= 148.39
 X[76] <= 148.39
 X[77] <= 148.39
 X[78] <= 148.39
 X[79] <= 148.39
Binaries
 Y[0] Y[1] Y[2] Y[3] Y[4] Y[5] Y[6] Y[7] Y[8] Y[9] Y[10] Y[11] Y[12] Y[13]
 Y[14] Y[15] Y[16] Y[17] Y[18] Y[19] Y[20] Y[21] Y[22] Y[23] Y[24] Y[25]
 Y[26] Y[27] Y[28] Y[29] Y[30] Y[31] Y[32] Y[33] Y[34] Y[35] Y[36] Y[37]
 Y[38] Y[39] Y[40] Y[41] Y[42] Y[43] Y[44] Y[45] Y[46] Y[47] Y[48] Y[49]
 Y[50] Y[51] Y[52] Y[53] Y[54] Y[55] Y[56] Y[57] Y[58] Y[59] Y[60] Y[61]
 Y[62] Y[63] Y[64] Y[65] Y[66] Y[67] Y[68] Y[69] Y[70] Y[71] Y[72] Y[73]
 Y[74] Y[75] Y[76] Y[77] Y[78] Y[79]
End
